c FILE /home/rafael/Documents/HappySet/MIHS/inputs/happygen/output/graph_random_k2_p0.5_v100_20241127_083559.txt
c SOURCE This is a random graph formed for the happy graph colouring problem.
c DESCRIPTION It was generated using the problem generator of Rhyd Lewis
c
c GRAPH STATS
c Seed                             = -1250394708
c Number of Nodes                  = 100
c Edge probability defined by user = 0.5
c Number of colours k              = 2
c Number of pre-assignments        = 50
c Actual density                   = 0.492121
c 
c The degrees of nodes 1 to 100, respectively, are as follows 
c [62, 59, 58, 58, 57, 57, 57, 57, 55, 55, 55, 54, 54, 54, 53, 53, 53, 52, 52, 52, 52, 52, 52, 52, 52, 52, 
c  52, 51, 51, 51, 51, 51, 51, 51, 51, 51, 51, 51, 51, 50, 50, 50, 50, 50, 49, 49, 49, 49, 49, 48, 48, 
c  48, 48, 48, 48, 47, 47, 47, 47, 47, 47, 47, 47, 46, 46, 46, 46, 46, 46, 46, 46, 46, 45, 45, 45, 45, 
c  45, 45, 45, 45, 45, 45, 44, 44, 44, 44, 44, 44, 43, 43, 43, 43, 43, 43, 42, 42, 42, 40, 39, 39] 
c  
p edge 100 2436 2
e 1 2
e 1 3
e 1 4
e 1 5
e 1 6
e 1 11
e 1 13
e 1 15
e 1 18
e 1 19
e 1 21
e 1 22
e 1 26
e 1 27
e 1 28
e 1 29
e 1 30
e 1 34
e 1 36
e 1 37
e 1 40
e 1 41
e 1 43
e 1 44
e 1 45
e 1 49
e 1 50
e 1 51
e 1 53
e 1 54
e 1 55
e 1 56
e 1 57
e 1 58
e 1 59
e 1 60
e 1 62
e 1 63
e 1 64
e 1 66
e 1 68
e 1 69
e 1 74
e 1 75
e 1 76
e 1 80
e 1 81
e 1 83
e 1 84
e 1 85
e 1 86
e 1 89
e 1 90
e 1 91
e 1 92
e 1 93
e 1 95
e 1 96
e 1 97
e 1 98
e 1 99
e 1 100
e 2 3
e 2 4
e 2 5
e 2 6
e 2 7
e 2 9
e 2 10
e 2 11
e 2 12
e 2 14
e 2 15
e 2 16
e 2 17
e 2 18
e 2 22
e 2 25
e 2 26
e 2 27
e 2 29
e 2 30
e 2 32
e 2 33
e 2 36
e 2 37
e 2 38
e 2 39
e 2 40
e 2 42
e 2 43
e 2 44
e 2 45
e 2 46
e 2 48
e 2 51
e 2 53
e 2 56
e 2 57
e 2 58
e 2 60
e 2 62
e 2 63
e 2 66
e 2 69
e 2 70
e 2 71
e 2 73
e 2 74
e 2 75
e 2 76
e 2 78
e 2 81
e 2 82
e 2 85
e 2 86
e 2 89
e 2 90
e 2 94
e 2 99
e 3 4
e 3 5
e 3 6
e 3 7
e 3 10
e 3 12
e 3 13
e 3 15
e 3 16
e 3 18
e 3 20
e 3 22
e 3 23
e 3 25
e 3 26
e 3 28
e 3 29
e 3 31
e 3 32
e 3 33
e 3 34
e 3 36
e 3 37
e 3 42
e 3 46
e 3 48
e 3 49
e 3 50
e 3 51
e 3 54
e 3 55
e 3 58
e 3 59
e 3 60
e 3 62
e 3 63
e 3 64
e 3 65
e 3 68
e 3 69
e 3 72
e 3 73
e 3 75
e 3 77
e 3 78
e 3 79
e 3 80
e 3 82
e 3 85
e 3 92
e 3 93
e 3 94
e 3 95
e 3 96
e 3 97
e 3 98
e 4 5
e 4 6
e 4 7
e 4 10
e 4 11
e 4 13
e 4 15
e 4 16
e 4 17
e 4 18
e 4 19
e 4 22
e 4 23
e 4 27
e 4 29
e 4 30
e 4 31
e 4 32
e 4 34
e 4 35
e 4 36
e 4 37
e 4 38
e 4 40
e 4 41
e 4 43
e 4 45
e 4 46
e 4 47
e 4 49
e 4 50
e 4 52
e 4 54
e 4 56
e 4 57
e 4 59
e 4 60
e 4 63
e 4 65
e 4 66
e 4 67
e 4 72
e 4 74
e 4 75
e 4 78
e 4 79
e 4 80
e 4 81
e 4 84
e 4 85
e 4 89
e 4 93
e 4 94
e 4 97
e 4 100
e 5 9
e 5 11
e 5 12
e 5 13
e 5 14
e 5 16
e 5 18
e 5 20
e 5 21
e 5 22
e 5 23
e 5 24
e 5 25
e 5 27
e 5 29
e 5 30
e 5 31
e 5 32
e 5 34
e 5 35
e 5 36
e 5 38
e 5 39
e 5 40
e 5 41
e 5 42
e 5 46
e 5 49
e 5 52
e 5 54
e 5 58
e 5 59
e 5 60
e 5 61
e 5 62
e 5 63
e 5 64
e 5 66
e 5 69
e 5 75
e 5 76
e 5 78
e 5 80
e 5 81
e 5 82
e 5 84
e 5 85
e 5 88
e 5 89
e 5 90
e 5 91
e 5 94
e 5 97
e 6 7
e 6 8
e 6 14
e 6 16
e 6 17
e 6 18
e 6 19
e 6 20
e 6 21
e 6 22
e 6 24
e 6 25
e 6 27
e 6 30
e 6 32
e 6 34
e 6 35
e 6 36
e 6 37
e 6 38
e 6 39
e 6 41
e 6 42
e 6 46
e 6 47
e 6 48
e 6 50
e 6 52
e 6 55
e 6 56
e 6 59
e 6 60
e 6 65
e 6 68
e 6 70
e 6 71
e 6 74
e 6 75
e 6 78
e 6 79
e 6 80
e 6 82
e 6 83
e 6 87
e 6 88
e 6 89
e 6 92
e 6 93
e 6 94
e 6 96
e 6 97
e 6 98
e 6 99
e 7 11
e 7 12
e 7 13
e 7 14
e 7 16
e 7 17
e 7 18
e 7 19
e 7 20
e 7 21
e 7 22
e 7 24
e 7 25
e 7 26
e 7 27
e 7 29
e 7 33
e 7 35
e 7 36
e 7 37
e 7 38
e 7 41
e 7 44
e 7 45
e 7 48
e 7 51
e 7 52
e 7 54
e 7 55
e 7 58
e 7 59
e 7 60
e 7 62
e 7 63
e 7 64
e 7 65
e 7 66
e 7 67
e 7 69
e 7 73
e 7 74
e 7 75
e 7 80
e 7 82
e 7 87
e 7 88
e 7 90
e 7 91
e 7 92
e 7 95
e 7 98
e 7 99
e 7 100
e 8 9
e 8 11
e 8 12
e 8 13
e 8 14
e 8 16
e 8 17
e 8 18
e 8 19
e 8 20
e 8 21
e 8 22
e 8 23
e 8 27
e 8 28
e 8 30
e 8 32
e 8 36
e 8 37
e 8 38
e 8 39
e 8 40
e 8 41
e 8 42
e 8 43
e 8 44
e 8 45
e 8 47
e 8 50
e 8 51
e 8 55
e 8 57
e 8 58
e 8 59
e 8 60
e 8 61
e 8 62
e 8 64
e 8 65
e 8 67
e 8 68
e 8 69
e 8 70
e 8 71
e 8 74
e 8 76
e 8 78
e 8 80
e 8 81
e 8 82
e 8 83
e 8 89
e 8 90
e 8 92
e 8 95
e 8 100
e 9 10
e 9 12
e 9 14
e 9 16
e 9 17
e 9 18
e 9 19
e 9 20
e 9 21
e 9 22
e 9 24
e 9 25
e 9 29
e 9 30
e 9 33
e 9 35
e 9 37
e 9 38
e 9 44
e 9 45
e 9 47
e 9 48
e 9 49
e 9 50
e 9 52
e 9 53
e 9 56
e 9 57
e 9 59
e 9 60
e 9 61
e 9 66
e 9 68
e 9 69
e 9 70
e 9 73
e 9 75
e 9 77
e 9 79
e 9 81
e 9 82
e 9 83
e 9 84
e 9 85
e 9 87
e 9 88
e 9 89
e 9 90
e 9 92
e 9 96
e 9 98
e 9 100
e 10 13
e 10 15
e 10 17
e 10 18
e 10 20
e 10 21
e 10 26
e 10 27
e 10 28
e 10 29
e 10 30
e 10 31
e 10 32
e 10 34
e 10 35
e 10 37
e 10 38
e 10 40
e 10 41
e 10 45
e 10 46
e 10 48
e 10 51
e 10 52
e 10 55
e 10 56
e 10 58
e 10 59
e 10 60
e 10 61
e 10 62
e 10 63
e 10 65
e 10 68
e 10 69
e 10 70
e 10 71
e 10 77
e 10 78
e 10 79
e 10 81
e 10 82
e 10 83
e 10 84
e 10 85
e 10 86
e 10 87
e 10 91
e 10 95
e 10 98
e 10 99
e 11 13
e 11 14
e 11 15
e 11 16
e 11 17
e 11 19
e 11 20
e 11 21
e 11 25
e 11 26
e 11 27
e 11 29
e 11 30
e 11 32
e 11 33
e 11 34
e 11 37
e 11 38
e 11 39
e 11 40
e 11 42
e 11 43
e 11 45
e 11 46
e 11 47
e 11 48
e 11 49
e 11 50
e 11 54
e 11 57
e 11 58
e 11 59
e 11 60
e 11 62
e 11 65
e 11 67
e 11 68
e 11 70
e 11 72
e 11 73
e 11 74
e 11 75
e 11 77
e 11 82
e 11 84
e 11 85
e 11 88
e 11 89
e 11 98
e 12 14
e 12 15
e 12 16
e 12 17
e 12 22
e 12 24
e 12 25
e 12 26
e 12 28
e 12 29
e 12 32
e 12 34
e 12 36
e 12 37
e 12 38
e 12 39
e 12 41
e 12 43
e 12 48
e 12 53
e 12 54
e 12 55
e 12 57
e 12 58
e 12 59
e 12 60
e 12 61
e 12 62
e 12 63
e 12 64
e 12 65
e 12 66
e 12 69
e 12 70
e 12 75
e 12 78
e 12 81
e 12 82
e 12 84
e 12 86
e 12 87
e 12 89
e 12 90
e 12 92
e 12 94
e 12 95
e 12 96
e 12 97
e 13 15
e 13 17
e 13 19
e 13 20
e 13 21
e 13 26
e 13 29
e 13 30
e 13 33
e 13 34
e 13 37
e 13 38
e 13 39
e 13 40
e 13 43
e 13 46
e 13 47
e 13 49
e 13 50
e 13 51
e 13 52
e 13 54
e 13 57
e 13 58
e 13 59
e 13 61
e 13 63
e 13 67
e 13 68
e 13 69
e 13 70
e 13 71
e 13 74
e 13 76
e 13 77
e 13 78
e 13 80
e 13 81
e 13 83
e 13 86
e 13 88
e 13 90
e 13 91
e 13 94
e 13 96
e 13 98
e 14 16
e 14 17
e 14 19
e 14 20
e 14 25
e 14 27
e 14 29
e 14 30
e 14 31
e 14 32
e 14 33
e 14 35
e 14 37
e 14 38
e 14 41
e 14 42
e 14 43
e 14 44
e 14 45
e 14 47
e 14 48
e 14 49
e 14 51
e 14 52
e 14 53
e 14 55
e 14 56
e 14 57
e 14 58
e 14 59
e 14 64
e 14 65
e 14 66
e 14 67
e 14 68
e 14 69
e 14 72
e 14 74
e 14 77
e 14 80
e 14 81
e 14 87
e 14 88
e 14 90
e 14 92
e 14 99
e 15 16
e 15 17
e 15 21
e 15 22
e 15 23
e 15 24
e 15 25
e 15 26
e 15 30
e 15 32
e 15 33
e 15 36
e 15 37
e 15 38
e 15 39
e 15 41
e 15 42
e 15 43
e 15 44
e 15 48
e 15 52
e 15 55
e 15 57
e 15 58
e 15 62
e 15 63
e 15 64
e 15 65
e 15 66
e 15 67
e 15 70
e 15 71
e 15 73
e 15 75
e 15 76
e 15 77
e 15 78
e 15 83
e 15 85
e 15 87
e 15 88
e 15 93
e 15 95
e 15 96
e 15 99
e 16 17
e 16 19
e 16 21
e 16 23
e 16 24
e 16 28
e 16 33
e 16 34
e 16 35
e 16 37
e 16 38
e 16 40
e 16 43
e 16 49
e 16 52
e 16 53
e 16 56
e 16 60
e 16 62
e 16 64
e 16 65
e 16 68
e 16 69
e 16 71
e 16 72
e 16 73
e 16 74
e 16 75
e 16 77
e 16 78
e 16 79
e 16 84
e 16 85
e 16 87
e 16 88
e 16 89
e 16 92
e 16 94
e 16 95
e 16 97
e 16 98
e 17 22
e 17 23
e 17 24
e 17 25
e 17 26
e 17 28
e 17 29
e 17 31
e 17 34
e 17 40
e 17 42
e 17 45
e 17 47
e 17 49
e 17 50
e 17 51
e 17 53
e 17 54
e 17 55
e 17 57
e 17 60
e 17 65
e 17 66
e 17 67
e 17 68
e 17 70
e 17 72
e 17 75
e 17 76
e 17 77
e 17 80
e 17 82
e 17 85
e 17 86
e 17 88
e 17 90
e 17 94
e 17 95
e 17 99
e 17 100
e 18 19
e 18 20
e 18 22
e 18 23
e 18 24
e 18 25
e 18 29
e 18 31
e 18 33
e 18 37
e 18 39
e 18 41
e 18 42
e 18 43
e 18 45
e 18 46
e 18 47
e 18 48
e 18 49
e 18 50
e 18 51
e 18 53
e 18 54
e 18 56
e 18 58
e 18 61
e 18 63
e 18 64
e 18 67
e 18 69
e 18 70
e 18 72
e 18 74
e 18 77
e 18 80
e 18 81
e 18 84
e 18 86
e 18 93
e 18 94
e 18 97
e 18 99
e 19 20
e 19 21
e 19 24
e 19 25
e 19 26
e 19 27
e 19 30
e 19 32
e 19 33
e 19 35
e 19 37
e 19 41
e 19 42
e 19 47
e 19 52
e 19 55
e 19 57
e 19 58
e 19 59
e 19 61
e 19 63
e 19 67
e 19 71
e 19 72
e 19 73
e 19 74
e 19 76
e 19 78
e 19 80
e 19 83
e 19 84
e 19 85
e 19 87
e 19 89
e 19 90
e 19 93
e 19 94
e 19 95
e 19 97
e 19 98
e 19 99
e 20 23
e 20 24
e 20 26
e 20 28
e 20 29
e 20 30
e 20 32
e 20 35
e 20 37
e 20 38
e 20 39
e 20 40
e 20 41
e 20 44
e 20 46
e 20 49
e 20 52
e 20 55
e 20 57
e 20 59
e 20 62
e 20 63
e 20 65
e 20 67
e 20 70
e 20 71
e 20 72
e 20 75
e 20 76
e 20 77
e 20 78
e 20 79
e 20 80
e 20 81
e 20 85
e 20 86
e 20 87
e 20 91
e 20 93
e 20 97
e 21 23
e 21 27
e 21 28
e 21 30
e 21 33
e 21 35
e 21 39
e 21 41
e 21 42
e 21 43
e 21 45
e 21 46
e 21 47
e 21 50
e 21 51
e 21 54
e 21 56
e 21 58
e 21 60
e 21 61
e 21 62
e 21 66
e 21 67
e 21 69
e 21 70
e 21 72
e 21 74
e 21 78
e 21 79
e 21 80
e 21 81
e 21 83
e 21 84
e 21 85
e 21 86
e 21 89
e 21 90
e 21 91
e 21 93
e 21 100
e 22 23
e 22 24
e 22 30
e 22 31
e 22 35
e 22 39
e 22 40
e 22 41
e 22 44
e 22 46
e 22 47
e 22 49
e 22 50
e 22 51
e 22 53
e 22 55
e 22 57
e 22 59
e 22 64
e 22 65
e 22 66
e 22 67
e 22 68
e 22 70
e 22 73
e 22 76
e 22 77
e 22 78
e 22 79
e 22 80
e 22 82
e 22 85
e 22 87
e 22 88
e 22 90
e 22 91
e 22 92
e 22 97
e 22 99
e 23 27
e 23 28
e 23 29
e 23 30
e 23 32
e 23 33
e 23 34
e 23 36
e 23 40
e 23 41
e 23 42
e 23 43
e 23 44
e 23 45
e 23 48
e 23 50
e 23 56
e 23 57
e 23 58
e 23 59
e 23 62
e 23 63
e 23 66
e 23 67
e 23 68
e 23 70
e 23 71
e 23 73
e 23 75
e 23 76
e 23 81
e 23 82
e 23 85
e 23 88
e 23 89
e 23 90
e 23 92
e 23 93
e 23 94
e 23 99
e 23 100
e 24 25
e 24 26
e 24 27
e 24 28
e 24 31
e 24 32
e 24 33
e 24 35
e 24 39
e 24 40
e 24 41
e 24 42
e 24 44
e 24 45
e 24 47
e 24 50
e 24 52
e 24 55
e 24 58
e 24 59
e 24 60
e 24 61
e 24 62
e 24 65
e 24 69
e 24 71
e 24 73
e 24 74
e 24 79
e 24 81
e 24 83
e 24 84
e 24 85
e 24 88
e 24 89
e 24 90
e 24 92
e 24 96
e 24 99
e 24 100
e 25 26
e 25 28
e 25 30
e 25 31
e 25 32
e 25 33
e 25 34
e 25 35
e 25 39
e 25 41
e 25 42
e 25 43
e 25 46
e 25 47
e 25 49
e 25 50
e 25 51
e 25 53
e 25 54
e 25 56
e 25 58
e 25 59
e 25 62
e 25 63
e 25 64
e 25 66
e 25 69
e 25 70
e 25 76
e 25 77
e 25 79
e 25 80
e 25 88
e 25 90
e 25 91
e 25 93
e 25 96
e 25 98
e 26 27
e 26 28
e 26 29
e 26 31
e 26 33
e 26 34
e 26 36
e 26 37
e 26 39
e 26 40
e 26 41
e 26 43
e 26 51
e 26 53
e 26 57
e 26 58
e 26 59
e 26 64
e 26 65
e 26 67
e 26 69
e 26 70
e 26 72
e 26 73
e 26 74
e 26 76
e 26 77
e 26 78
e 26 79
e 26 81
e 26 84
e 26 86
e 26 88
e 26 89
e 26 90
e 26 95
e 26 97
e 26 100
e 27 29
e 27 31
e 27 33
e 27 34
e 27 36
e 27 39
e 27 42
e 27 43
e 27 44
e 27 45
e 27 47
e 27 48
e 27 49
e 27 50
e 27 53
e 27 54
e 27 57
e 27 58
e 27 62
e 27 64
e 27 66
e 27 68
e 27 70
e 27 71
e 27 72
e 27 74
e 27 75
e 27 77
e 27 78
e 27 81
e 27 83
e 27 84
e 27 88
e 27 91
e 27 94
e 27 96
e 27 98
e 28 30
e 28 31
e 28 32
e 28 33
e 28 34
e 28 36
e 28 37
e 28 39
e 28 41
e 28 42
e 28 46
e 28 47
e 28 49
e 28 52
e 28 53
e 28 54
e 28 56
e 28 57
e 28 58
e 28 60
e 28 61
e 28 64
e 28 66
e 28 68
e 28 70
e 28 72
e 28 73
e 28 75
e 28 76
e 28 77
e 28 78
e 28 79
e 28 80
e 28 83
e 28 88
e 28 90
e 28 91
e 28 94
e 29 31
e 29 32
e 29 35
e 29 38
e 29 39
e 29 40
e 29 41
e 29 45
e 29 47
e 29 50
e 29 54
e 29 55
e 29 59
e 29 61
e 29 62
e 29 63
e 29 68
e 29 71
e 29 73
e 29 77
e 29 79
e 29 80
e 29 81
e 29 84
e 29 85
e 29 89
e 29 91
e 29 92
e 29 94
e 29 96
e 29 98
e 29 99
e 29 100
e 30 31
e 30 33
e 30 35
e 30 36
e 30 37
e 30 41
e 30 43
e 30 44
e 30 45
e 30 52
e 30 53
e 30 54
e 30 57
e 30 58
e 30 59
e 30 64
e 30 66
e 30 67
e 30 68
e 30 70
e 30 71
e 30 72
e 30 74
e 30 75
e 30 76
e 30 79
e 30 86
e 30 87
e 30 88
e 30 92
e 30 96
e 30 99
e 31 32
e 31 34
e 31 35
e 31 36
e 31 39
e 31 41
e 31 43
e 31 45
e 31 47
e 31 51
e 31 52
e 31 53
e 31 54
e 31 55
e 31 57
e 31 58
e 31 59
e 31 62
e 31 68
e 31 70
e 31 71
e 31 72
e 31 73
e 31 74
e 31 75
e 31 77
e 31 78
e 31 80
e 31 83
e 31 92
e 31 94
e 31 95
e 31 96
e 31 98
e 31 99
e 31 100
e 32 34
e 32 37
e 32 38
e 32 39
e 32 40
e 32 43
e 32 45
e 32 48
e 32 51
e 32 52
e 32 53
e 32 54
e 32 55
e 32 56
e 32 57
e 32 58
e 32 59
e 32 60
e 32 61
e 32 64
e 32 65
e 32 66
e 32 67
e 32 69
e 32 71
e 32 72
e 32 73
e 32 77
e 32 84
e 32 91
e 32 99
e 32 100
e 33 35
e 33 38
e 33 39
e 33 40
e 33 42
e 33 49
e 33 53
e 33 56
e 33 58
e 33 63
e 33 64
e 33 65
e 33 66
e 33 67
e 33 68
e 33 71
e 33 72
e 33 74
e 33 78
e 33 81
e 33 82
e 33 83
e 33 84
e 33 85
e 33 86
e 33 88
e 33 89
e 33 91
e 33 93
e 33 95
e 33 97
e 33 99
e 34 35
e 34 37
e 34 38
e 34 39
e 34 43
e 34 44
e 34 47
e 34 50
e 34 55
e 34 57
e 34 61
e 34 62
e 34 64
e 34 65
e 34 66
e 34 67
e 34 68
e 34 70
e 34 71
e 34 72
e 34 73
e 34 75
e 34 76
e 34 79
e 34 81
e 34 82
e 34 83
e 34 84
e 34 87
e 34 88
e 34 93
e 34 96
e 34 98
e 35 41
e 35 43
e 35 45
e 35 47
e 35 48
e 35 49
e 35 50
e 35 51
e 35 52
e 35 53
e 35 56
e 35 57
e 35 58
e 35 59
e 35 60
e 35 69
e 35 70
e 35 72
e 35 73
e 35 76
e 35 77
e 35 79
e 35 81
e 35 82
e 35 83
e 35 85
e 35 87
e 35 89
e 35 91
e 35 92
e 35 94
e 35 95
e 36 38
e 36 39
e 36 42
e 36 43
e 36 44
e 36 45
e 36 48
e 36 49
e 36 50
e 36 53
e 36 54
e 36 55
e 36 58
e 36 60
e 36 61
e 36 63
e 36 67
e 36 68
e 36 69
e 36 70
e 36 71
e 36 77
e 36 79
e 36 80
e 36 81
e 36 82
e 36 83
e 36 86
e 36 88
e 36 92
e 36 94
e 36 95
e 36 97
e 36 98
e 36 99
e 37 39
e 37 40
e 37 42
e 37 43
e 37 46
e 37 47
e 37 50
e 37 51
e 37 52
e 37 61
e 37 64
e 37 66
e 37 69
e 37 70
e 37 71
e 37 72
e 37 73
e 37 77
e 37 80
e 37 84
e 37 86
e 37 87
e 37 88
e 37 89
e 37 90
e 37 92
e 37 94
e 37 100
e 38 39
e 38 40
e 38 41
e 38 42
e 38 43
e 38 45
e 38 47
e 38 54
e 38 55
e 38 57
e 38 61
e 38 62
e 38 64
e 38 67
e 38 68
e 38 69
e 38 73
e 38 74
e 38 75
e 38 76
e 38 78
e 38 83
e 38 84
e 38 85
e 38 87
e 38 90
e 38 91
e 38 94
e 38 95
e 38 97
e 38 98
e 39 41
e 39 42
e 39 43
e 39 44
e 39 45
e 39 46
e 39 50
e 39 51
e 39 52
e 39 54
e 39 55
e 39 56
e 39 64
e 39 65
e 39 68
e 39 69
e 39 75
e 39 76
e 39 77
e 39 78
e 39 80
e 39 88
e 39 89
e 39 90
e 39 92
e 39 100
e 40 41
e 40 42
e 40 45
e 40 46
e 40 48
e 40 49
e 40 50
e 40 52
e 40 53
e 40 55
e 40 60
e 40 66
e 40 67
e 40 68
e 40 69
e 40 71
e 40 72
e 40 73
e 40 74
e 40 75
e 40 76
e 40 84
e 40 85
e 40 86
e 40 88
e 40 90
e 40 96
e 40 97
e 40 99
e 40 100
e 41 42
e 41 43
e 41 45
e 41 46
e 41 49
e 41 51
e 41 54
e 41 56
e 41 58
e 41 59
e 41 61
e 41 65
e 41 67
e 41 68
e 41 70
e 41 71
e 41 78
e 41 79
e 41 80
e 41 81
e 41 92
e 41 96
e 41 99
e 42 44
e 42 46
e 42 48
e 42 49
e 42 50
e 42 51
e 42 53
e 42 54
e 42 57
e 42 60
e 42 61
e 42 62
e 42 65
e 42 68
e 42 71
e 42 72
e 42 77
e 42 79
e 42 80
e 42 81
e 42 84
e 42 86
e 42 88
e 42 91
e 42 94
e 42 100
e 43 44
e 43 46
e 43 50
e 43 52
e 43 57
e 43 62
e 43 63
e 43 65
e 43 67
e 43 69
e 43 73
e 43 75
e 43 79
e 43 80
e 43 82
e 43 83
e 43 87
e 43 91
e 43 92
e 43 95
e 43 96
e 43 97
e 43 98
e 43 100
e 44 46
e 44 47
e 44 48
e 44 51
e 44 55
e 44 57
e 44 59
e 44 61
e 44 62
e 44 64
e 44 66
e 44 67
e 44 68
e 44 72
e 44 73
e 44 75
e 44 76
e 44 78
e 44 79
e 44 80
e 44 83
e 44 89
e 44 90
e 44 91
e 44 92
e 44 93
e 44 94
e 44 95
e 44 96
e 44 97
e 44 98
e 44 99
e 45 49
e 45 50
e 45 52
e 45 54
e 45 58
e 45 61
e 45 62
e 45 63
e 45 64
e 45 71
e 45 75
e 45 76
e 45 78
e 45 79
e 45 81
e 45 83
e 45 84
e 45 85
e 45 86
e 45 90
e 45 91
e 45 92
e 45 95
e 45 96
e 46 47
e 46 52
e 46 53
e 46 55
e 46 57
e 46 58
e 46 60
e 46 62
e 46 64
e 46 65
e 46 67
e 46 70
e 46 74
e 46 75
e 46 78
e 46 82
e 46 83
e 46 84
e 46 86
e 46 87
e 46 92
e 46 93
e 46 94
e 46 96
e 46 97
e 46 98
e 46 99
e 46 100
e 47 48
e 47 50
e 47 52
e 47 53
e 47 56
e 47 58
e 47 59
e 47 62
e 47 63
e 47 72
e 47 73
e 47 74
e 47 75
e 47 77
e 47 78
e 47 79
e 47 85
e 47 88
e 47 89
e 47 90
e 47 92
e 47 94
e 47 95
e 47 97
e 47 100
e 48 49
e 48 52
e 48 55
e 48 56
e 48 57
e 48 59
e 48 61
e 48 63
e 48 64
e 48 65
e 48 66
e 48 67
e 48 68
e 48 72
e 48 73
e 48 74
e 48 76
e 48 79
e 48 84
e 48 85
e 48 86
e 48 87
e 48 88
e 48 89
e 48 90
e 48 91
e 48 94
e 48 96
e 48 99
e 49 50
e 49 52
e 49 53
e 49 56
e 49 58
e 49 60
e 49 63
e 49 64
e 49 66
e 49 67
e 49 68
e 49 69
e 49 70
e 49 72
e 49 73
e 49 74
e 49 79
e 49 81
e 49 83
e 49 84
e 49 86
e 49 88
e 49 89
e 49 95
e 49 100
e 50 53
e 50 54
e 50 55
e 50 56
e 50 58
e 50 61
e 50 63
e 50 66
e 50 69
e 50 70
e 50 73
e 50 74
e 50 77
e 50 79
e 50 81
e 50 85
e 50 86
e 50 87
e 50 93
e 50 95
e 51 52
e 51 53
e 51 55
e 51 57
e 51 59
e 51 60
e 51 62
e 51 63
e 51 64
e 51 65
e 51 66
e 51 68
e 51 69
e 51 70
e 51 72
e 51 75
e 51 79
e 51 83
e 51 84
e 51 86
e 51 88
e 51 93
e 51 95
e 51 96
e 51 97
e 51 98
e 52 53
e 52 55
e 52 58
e 52 60
e 52 61
e 52 63
e 52 65
e 52 68
e 52 69
e 52 72
e 52 77
e 52 78
e 52 81
e 52 82
e 52 85
e 52 87
e 52 89
e 52 90
e 52 91
e 52 93
e 53 54
e 53 55
e 53 56
e 53 57
e 53 61
e 53 63
e 53 64
e 53 65
e 53 67
e 53 74
e 53 76
e 53 78
e 53 81
e 53 84
e 53 90
e 53 91
e 53 92
e 53 93
e 53 94
e 53 95
e 53 96
e 54 56
e 54 57
e 54 58
e 54 59
e 54 61
e 54 62
e 54 65
e 54 66
e 54 69
e 54 72
e 54 75
e 54 77
e 54 80
e 54 83
e 54 84
e 54 86
e 54 87
e 54 88
e 54 91
e 54 97
e 54 98
e 54 100
e 55 57
e 55 58
e 55 59
e 55 63
e 55 64
e 55 67
e 55 71
e 55 72
e 55 78
e 55 84
e 55 86
e 55 87
e 55 89
e 55 92
e 55 93
e 55 95
e 55 96
e 55 97
e 55 98
e 56 58
e 56 59
e 56 60
e 56 61
e 56 62
e 56 63
e 56 64
e 56 66
e 56 69
e 56 70
e 56 76
e 56 81
e 56 84
e 56 86
e 56 87
e 56 88
e 56 90
e 56 91
e 56 92
e 56 94
e 56 95
e 56 99
e 56 100
e 57 58
e 57 59
e 57 60
e 57 67
e 57 69
e 57 78
e 57 79
e 57 82
e 57 83
e 57 86
e 57 87
e 57 88
e 57 92
e 57 93
e 58 63
e 58 64
e 58 74
e 58 78
e 58 82
e 58 84
e 58 86
e 58 90
e 58 91
e 59 62
e 59 64
e 59 69
e 59 70
e 59 73
e 59 75
e 59 76
e 59 81
e 59 82
e 59 89
e 59 90
e 59 93
e 59 95
e 60 61
e 60 64
e 60 67
e 60 71
e 60 74
e 60 75
e 60 76
e 60 79
e 60 80
e 60 81
e 60 82
e 60 83
e 60 91
e 60 94
e 60 96
e 60 97
e 60 98
e 60 99
e 60 100
e 61 70
e 61 71
e 61 72
e 61 73
e 61 74
e 61 76
e 61 80
e 61 81
e 61 82
e 61 84
e 61 85
e 61 88
e 61 89
e 61 91
e 61 92
e 61 93
e 61 94
e 61 97
e 61 100
e 62 65
e 62 66
e 62 68
e 62 69
e 62 73
e 62 74
e 62 75
e 62 76
e 62 77
e 62 80
e 62 81
e 62 85
e 62 87
e 62 90
e 62 91
e 62 99
e 63 64
e 63 66
e 63 68
e 63 69
e 63 71
e 63 72
e 63 74
e 63 75
e 63 77
e 63 83
e 63 84
e 63 87
e 63 89
e 63 90
e 63 93
e 63 94
e 63 98
e 64 73
e 64 74
e 64 77
e 64 80
e 64 82
e 64 86
e 64 87
e 64 89
e 64 90
e 64 91
e 64 92
e 65 66
e 65 68
e 65 70
e 65 72
e 65 73
e 65 76
e 65 77
e 65 78
e 65 80
e 65 82
e 65 87
e 65 92
e 65 93
e 65 95
e 65 96
e 65 98
e 66 69
e 66 74
e 66 75
e 66 77
e 66 80
e 66 81
e 66 84
e 66 85
e 66 90
e 66 91
e 66 93
e 66 94
e 66 98
e 66 100
e 67 70
e 67 72
e 67 75
e 67 76
e 67 79
e 67 82
e 67 83
e 67 88
e 67 89
e 67 91
e 67 92
e 67 96
e 67 97
e 67 100
e 68 69
e 68 72
e 68 76
e 68 82
e 68 83
e 68 86
e 68 89
e 68 91
e 68 92
e 68 93
e 68 95
e 68 97
e 69 71
e 69 73
e 69 76
e 69 79
e 69 82
e 69 90
e 69 96
e 69 98
e 69 99
e 70 72
e 70 73
e 70 74
e 70 76
e 70 78
e 70 80
e 70 84
e 70 85
e 70 87
e 70 89
e 70 93
e 71 72
e 71 75
e 71 76
e 71 77
e 71 78
e 71 79
e 71 80
e 71 82
e 71 87
e 71 89
e 71 91
e 71 92
e 71 93
e 71 94
e 71 95
e 71 96
e 71 98
e 72 73
e 72 78
e 72 79
e 72 80
e 72 87
e 72 93
e 72 94
e 72 96
e 72 97
e 73 77
e 73 78
e 73 81
e 73 82
e 73 85
e 73 89
e 73 91
e 73 92
e 73 93
e 73 96
e 74 79
e 74 82
e 74 83
e 74 85
e 74 86
e 74 89
e 74 90
e 74 93
e 74 94
e 74 100
e 75 77
e 75 80
e 75 82
e 75 88
e 75 93
e 75 97
e 75 99
e 75 100
e 76 77
e 76 78
e 76 81
e 76 83
e 76 84
e 76 86
e 76 95
e 76 98
e 76 99
e 76 100
e 77 78
e 77 79
e 77 85
e 77 87
e 77 89
e 77 95
e 77 96
e 77 98
e 78 83
e 78 85
e 78 86
e 78 87
e 78 96
e 78 97
e 79 81
e 79 85
e 79 86
e 79 90
e 79 95
e 79 97
e 79 98
e 79 99
e 79 100
e 80 81
e 80 82
e 80 85
e 80 86
e 80 87
e 80 95
e 80 98
e 80 100
e 81 82
e 81 83
e 81 86
e 81 87
e 81 95
e 81 100
e 82 83
e 82 86
e 82 89
e 82 91
e 82 92
e 82 93
e 82 94
e 82 95
e 82 97
e 83 84
e 83 85
e 83 86
e 83 87
e 83 92
e 83 93
e 83 94
e 83 96
e 83 99
e 84 85
e 84 86
e 84 91
e 84 96
e 84 99
e 84 100
e 85 87
e 85 88
e 85 95
e 85 97
e 85 99
e 86 87
e 86 89
e 86 91
e 86 92
e 86 97
e 86 100
e 87 88
e 87 92
e 87 93
e 87 96
e 87 100
e 88 89
e 88 90
e 88 91
e 88 96
e 88 97
e 88 98
e 88 100
e 89 90
e 89 94
e 89 95
e 90 92
e 90 94
e 90 98
e 91 94
e 91 96
e 91 97
e 91 98
e 92 93
e 92 99
e 93 94
e 93 95
e 93 97
e 93 98
e 93 99
e 93 100
e 94 95
e 94 97
e 94 98
e 95 96
e 95 97
e 96 97
e 96 98
e 96 99
e 97 99
e 97 100
e 98 99
n 2 1
n 4 1
n 5 1
n 8 1
n 12 1
n 14 1
n 15 1
n 17 1
n 18 1
n 21 1
n 22 1
n 23 1
n 24 1
n 28 1
n 30 1
n 32 1
n 33 1
n 35 1
n 37 1
n 39 1
n 40 1
n 42 1
n 45 1
n 47 1
n 48 1
n 56 1
n 57 1
n 58 1
n 59 1
n 62 1
n 64 1
n 68 1
n 70 1
n 72 1
n 73 1
n 74 1
n 75 1
n 78 1
n 81 1
n 82 1
n 83 1
n 84 1
n 85 1
n 86 1
n 87 1
n 92 1
n 95 1
n 97 1
n 98 2
n 100 1
